20	5
0	5	5	1	4	2	3
1	1	12
2	1	9
3	1	14
4	3	7	8	13
5	1	7
6	2	19	15
7	1	16
8	1	19
9	2	18	10
10	2	6	20
11	1	16
12	2	17	19
13	1	21
14	1	21
15	1	21
16	1	21
17	1	21
18	1	21
19	1	21
20	1	21
21	0
0	0	0	0	0	0	0
1	5	2	0	0	5	0
2	8	2	0	0	3	0
3	7	5	2	5	0	0
4	6	0	0	2	0	0
5	7	0	1	4	0	0
6	9	0	5	5	4	2
7	7	4	2	0	0	5
8	10	0	0	1	0	0
9	1	1	0	0	0	0
10	7	5	0	4	0	0
11	9	0	0	1	3	2
12	6	2	0	4	4	0
13	4	4	3	3	5	2
14	5	2	5	5	3	0
15	9	0	0	2	0	3
16	5	3	0	0	2	1
17	9	0	0	0	3	2
18	6	0	4	2	0	0
19	8	0	0	2	1	3
20	2	4	0	0	2	0
21	0	0	0	0	0	0
5	5	5	5	5
